dates = {'2021-11-30','2021-12-01','2021-12-02','2021-12-03','2021-12-04','2021-12-05','2021-12-06'};

daysOfWeek = [Tuesday,Wednesday,Thursday,Friday,Saturday,Sunday,Monday];

% For this week, how many people will be here.
numPeople = [105,105,105,115,125,125,125];

% Physical workers need 50 to 100 % more nutrients per day.
numPhysicalWorkers = [41.0,41.0,41.0,45.0,46.5,46.5,46.5];

% Males need +25% more nutrients per day.
numMen = [84,81,81,86,96,96,96];

% Num people who do not eat categories. contains = {none, meat, milk, gluten, egg, nut, seed, sugars}
numRefusals = [| 0,0,6,0,3,0,0,0 | 0,0,6,0,3,0,0,0 | 0,0,6,0,3,0,0,0 | 0,5,10,6,0,0,3,3 | 0,0,2,0,0,4,0,2 | 0,0,2,0,0,4,0,2 | 0,0,2,0,0,4,0,2 |];

